************************************************************************
file with basedata            : mm26_.bas
initial value random generator: 829674294
************************************************************************
projects                      :  1
jobs (incl. supersource/sink ):  12
horizon                       :  83
RESOURCES
  - renewable                 :  2   R
  - nonrenewable              :  2   N
  - doubly constrained        :  0   D
************************************************************************
PROJECT INFORMATION:
pronr.  #jobs rel.date duedate tardcost  MPM-Time
    1     10      0       17        2       17
************************************************************************
PRECEDENCE RELATIONS:
jobnr.    #modes  #successors   successors
   0        1          3           1   2   3
   1        3          2           4  10
   2        3          2           7  10
   3        3          1           8
   4        3          2           5   6
   5        3          2           8   9
   6        3          2           7   9
   7        3          1           8
   8        3          1          11
   9        3          1          11
  10        3          1          11
  11        1          0        
************************************************************************
REQUESTS/DURATIONS:
jobnr. mode duration  R 1  R 2  R 3  R 4  E(W 1)  E(W 2)  E(W 3)
------------------------------------------------------------------------
  0      1     0       0    0    0    0     0       0       0
  1      1     6       0    6    7    0    36      42       0
  2      1     4       3    0    9    0    12      36       0
  3      1     3       9    0    0   10    27       0      30
  4      1     2       0    4   10    0     8      20       0
  5      1     5       0    8    0    6    40       0      30
  6      1     4       0    4    0    7    16       0      28
  7      1     3       0    9    8    0    27      24       0
  8      1     2       7    0    0    9    14       0      18
  9      1     1       0    9    3    0     9       3       0
 10      1     6       7    0    0    2    42       0      12
 11      1     0       0    0    0    0     0       0       0
************************************************************************
RESOURCEAVAILABILITIES:
  R 1  R 2  R 3
   44   36   25
************************************************************************
RESOURCE LIMITS:
jobnr.  l(R 1)  u(R 1)  l(R 2)  u(R 2)  l(R 3)  u(R 3)
------------------------------------------------------------------------
  0        0       0       0       0       0       0
  1        3       6       4       7       0       0
  2        2       3       5       9       0       0
  3        5       9       0       0       5      10
  4        2       4       5      10       0       0
  5        4       8       0       0       3       6
  6        2       4       0       0       4       7
  7        5       9       4       8       0       0
  8        4       7       0       0       5       9
  9        5       9       2       3       0       0
 10        4       7       0       0       1       2
 11        0       0       0       0       0       0
************************************************************************
SCENARIOS:
------------------------------------------------------------------------
RESOURCE k = 1
s = 1: (0, 46, 11, 22, 7, 35, 15, 20, 20, 8, 43, 0)
s = 2: (0, 45, 9, 16, 11, 43, 11, 24, 14, 14, 36, 0)
s = 3: (0, 47, 18, 16, 6, 50, 19, 18, 18, 8, 37, 0)
s = 4: (0, 40, 11, 23, 5, 36, 14, 21, 10, 12, 39, 0)
s = 5: (0, 34, 10, 39, 6, 61, 25, 24, 12, 6, 36, 0)
s = 6: (0, 30, 11, 32, 7, 49, 12, 27, 16, 10, 50, 0)
s = 7: (0, 26, 10, 30, 6, 28, 19, 33, 15, 6, 56, 0)
s = 8: (0, 47, 10, 25, 5, 34, 18, 24, 16, 8, 35, 0)
s = 9: (0, 23, 13, 22, 9, 61, 12, 41, 14, 9, 69, 0)
s = 10: (0, 38, 15, 14, 10, 43, 22, 27, 13, 10, 77, 0)
s = 11: (0, 21, 8, 30, 7, 33, 14, 33, 18, 13, 50, 0)
s = 12: (0, 27, 14, 17, 10, 40, 26, 18, 11, 10, 58, 0)
s = 13: (0, 22, 8, 17, 9, 32, 13, 17, 8, 12, 47, 0)
s = 14: (0, 43, 7, 22, 6, 27, 14, 23, 10, 6, 51, 0)
s = 15: (0, 26, 9, 22, 8, 30, 27, 20, 17, 6, 33, 0)
s = 16: (0, 49, 9, 29, 9, 39, 14, 41, 11, 13, 46, 0)
s = 17: (0, 35, 18, 31, 6, 41, 9, 26, 11, 8, 42, 0)
s = 18: (0, 48, 11, 27, 11, 42, 18, 20, 16, 12, 42, 0)
s = 19: (0, 40, 15, 22, 7, 26, 13, 26, 20, 9, 54, 0)
s = 20: (0, 24, 9, 32, 7, 63, 12, 17, 20, 8, 43, 0)
s = 21: (0, 35, 10, 27, 8, 60, 13, 18, 17, 8, 24, 0)
s = 22: (0, 45, 13, 19, 7, 36, 14, 24, 17, 16, 48, 0)
s = 23: (0, 41, 12, 23, 7, 35, 24, 37, 13, 9, 51, 0)
s = 24: (0, 27, 16, 26, 9, 36, 23, 21, 14, 11, 41, 0)
s = 25: (0, 49, 10, 44, 13, 55, 9, 28, 21, 13, 50, 0)
s = 26: (0, 37, 13, 20, 6, 45, 21, 20, 14, 7, 41, 0)
s = 27: (0, 39, 15, 22, 8, 60, 11, 30, 11, 5, 60, 0)
s = 28: (0, 26, 9, 52, 7, 41, 17, 33, 15, 11, 37, 0)
s = 29: (0, 35, 7, 31, 12, 35, 11, 25, 12, 8, 37, 0)
s = 30: (0, 31, 10, 30, 12, 47, 18, 20, 11, 13, 46, 0)
s = 31: (0, 46, 14, 18, 10, 40, 20, 22, 18, 10, 52, 0)
s = 32: (0, 38, 12, 39, 11, 51, 22, 21, 16, 13, 34, 0)
s = 33: (0, 22, 12, 28, 11, 33, 15, 18, 13, 12, 35, 0)
s = 34: (0, 37, 12, 33, 8, 35, 14, 21, 13, 13, 34, 0)
s = 35: (0, 22, 8, 34, 8, 51, 19, 34, 23, 11, 44, 0)
s = 36: (0, 24, 14, 29, 10, 39, 12, 26, 11, 12, 38, 0)
s = 37: (0, 22, 11, 42, 9, 40, 11, 29, 12, 6, 36, 0)
s = 38: (0, 45, 11, 24, 10, 47, 19, 27, 19, 10, 50, 0)
s = 39: (0, 35, 11, 31, 6, 29, 15, 34, 16, 6, 58, 0)
s = 40: (0, 38, 9, 22, 9, 37, 14, 25, 11, 10, 41, 0)
s = 41: (0, 32, 13, 22, 10, 62, 9, 22, 13, 11, 47, 0)
s = 42: (0, 32, 10, 29, 7, 34, 20, 26, 11, 10, 38, 0)
s = 43: (0, 31, 12, 31, 7, 33, 18, 25, 13, 14, 44, 0)
s = 44: (0, 63, 11, 20, 9, 48, 13, 17, 16, 9, 34, 0)
s = 45: (0, 35, 9, 32, 11, 40, 11, 28, 17, 13, 38, 0)
s = 46: (0, 23, 12, 18, 8, 40, 14, 20, 18, 7, 39, 0)
s = 47: (0, 28, 21, 27, 6, 31, 11, 26, 14, 11, 26, 0)
s = 48: (0, 30, 20, 31, 11, 24, 22, 23, 14, 12, 24, 0)
s = 49: (0, 46, 13, 19, 9, 30, 16, 23, 18, 8, 45, 0)
s = 50: (0, 24, 15, 35, 11, 45, 10, 20, 15, 9, 25, 0)
s = 51: (0, 42, 8, 31, 7, 38, 13, 30, 13, 13, 47, 0)
s = 52: (0, 26, 19, 17, 7, 35, 13, 27, 10, 18, 30, 0)
s = 53: (0, 36, 18, 16, 7, 25, 16, 26, 13, 7, 40, 0)
s = 54: (0, 36, 14, 25, 13, 34, 11, 18, 12, 8, 40, 0)
s = 55: (0, 22, 18, 38, 8, 56, 18, 30, 17, 11, 44, 0)
s = 56: (0, 39, 14, 15, 6, 25, 18, 46, 22, 10, 29, 0)
s = 57: (0, 36, 15, 33, 7, 53, 13, 31, 18, 13, 40, 0)
s = 58: (0, 25, 9, 30, 10, 45, 18, 38, 13, 12, 34, 0)
s = 59: (0, 57, 11, 27, 6, 27, 16, 28, 14, 16, 32, 0)
s = 60: (0, 44, 17, 32, 8, 24, 19, 30, 13, 11, 51, 0)
s = 61: (0, 26, 15, 24, 6, 37, 25, 21, 13, 9, 65, 0)
s = 62: (0, 39, 15, 25, 7, 47, 24, 31, 11, 15, 31, 0)
s = 63: (0, 44, 20, 24, 9, 68, 13, 24, 17, 12, 50, 0)
s = 64: (0, 45, 18, 42, 9, 38, 18, 26, 10, 5, 25, 0)
s = 65: (0, 54, 16, 26, 9, 31, 15, 31, 15, 10, 38, 0)
s = 66: (0, 23, 9, 49, 9, 56, 12, 30, 14, 10, 47, 0)
s = 67: (0, 30, 10, 24, 10, 28, 21, 22, 9, 9, 55, 0)
s = 68: (0, 44, 9, 21, 10, 41, 12, 39, 22, 10, 42, 0)
s = 69: (0, 27, 11, 34, 5, 30, 20, 34, 19, 9, 41, 0)
s = 70: (0, 56, 18, 34, 11, 67, 17, 42, 23, 13, 41, 0)
s = 71: (0, 62, 13, 25, 8, 63, 19, 19, 14, 8, 32, 0)
s = 72: (0, 57, 10, 24, 9, 49, 16, 18, 14, 11, 35, 0)
s = 73: (0, 40, 18, 45, 14, 39, 11, 33, 10, 12, 45, 0)
s = 74: (0, 32, 9, 20, 6, 37, 12, 29, 22, 7, 33, 0)
s = 75: (0, 24, 10, 36, 9, 21, 12, 32, 12, 7, 58, 0)
s = 76: (0, 31, 12, 30, 13, 28, 11, 39, 13, 5, 34, 0)
s = 77: (0, 48, 15, 30, 6, 48, 16, 19, 17, 12, 28, 0)
s = 78: (0, 47, 8, 17, 8, 34, 18, 28, 16, 8, 32, 0)
s = 79: (0, 50, 15, 22, 8, 40, 19, 33, 10, 7, 47, 0)
s = 80: (0, 30, 11, 25, 10, 25, 12, 29, 12, 9, 31, 0)
s = 81: (0, 28, 10, 41, 8, 43, 22, 15, 12, 11, 29, 0)
s = 82: (0, 45, 13, 21, 5, 46, 15, 30, 21, 11, 50, 0)
s = 83: (0, 50, 16, 24, 10, 58, 15, 18, 19, 7, 34, 0)
s = 84: (0, 40, 17, 31, 8, 54, 20, 41, 12, 8, 26, 0)
s = 85: (0, 24, 16, 34, 7, 54, 14, 29, 20, 11, 43, 0)
s = 86: (0, 30, 15, 28, 8, 31, 14, 22, 14, 10, 43, 0)
s = 87: (0, 29, 16, 20, 9, 39, 24, 25, 11, 9, 29, 0)
s = 88: (0, 21, 15, 19, 7, 41, 10, 22, 17, 8, 23, 0)
s = 89: (0, 27, 12, 24, 9, 47, 12, 16, 17, 14, 37, 0)
s = 90: (0, 46, 9, 26, 10, 37, 24, 32, 14, 7, 64, 0)
s = 91: (0, 63, 12, 24, 10, 54, 25, 20, 8, 8, 56, 0)
s = 92: (0, 37, 13, 23, 8, 25, 12, 23, 11, 7, 33, 0)
s = 93: (0, 32, 15, 36, 12, 51, 11, 29, 12, 14, 49, 0)
s = 94: (0, 47, 12, 15, 11, 36, 12, 25, 17, 10, 39, 0)
s = 95: (0, 33, 11, 22, 8, 41, 19, 16, 14, 7, 38, 0)
s = 96: (0, 30, 11, 39, 11, 26, 13, 28, 21, 8, 49, 0)
s = 97: (0, 33, 10, 30, 12, 38, 19, 21, 13, 11, 32, 0)
s = 98: (0, 28, 12, 18, 6, 26, 13, 23, 10, 16, 32, 0)
s = 99: (0, 43, 17, 30, 7, 32, 10, 27, 15, 12, 44, 0)
s = 100: (0, 30, 13, 19, 5, 32, 15, 30, 19, 10, 49, 0)
s = 101: (0, 36, 9, 30, 6, 64, 27, 19, 15, 11, 32, 0)
s = 102: (0, 40, 8, 25, 6, 65, 12, 33, 13, 14, 27, 0)
s = 103: (0, 28, 14, 28, 6, 35, 15, 28, 15, 10, 28, 0)
s = 104: (0, 50, 9, 30, 8, 40, 12, 24, 25, 11, 39, 0)
s = 105: (0, 46, 9, 19, 6, 26, 17, 29, 13, 11, 32, 0)
s = 106: (0, 63, 9, 32, 13, 34, 17, 21, 16, 13, 24, 0)
s = 107: (0, 29, 18, 31, 6, 34, 20, 16, 11, 6, 36, 0)
s = 108: (0, 37, 7, 24, 9, 28, 18, 16, 10, 12, 61, 0)
s = 109: (0, 49, 12, 20, 8, 22, 14, 31, 11, 7, 41, 0)
s = 110: (0, 32, 17, 25, 6, 34, 16, 22, 17, 8, 39, 0)
s = 111: (0, 28, 14, 25, 6, 47, 18, 29, 14, 10, 52, 0)
s = 112: (0, 45, 16, 16, 8, 50, 13, 34, 13, 11, 67, 0)
s = 113: (0, 40, 7, 32, 7, 58, 15, 28, 13, 8, 59, 0)
s = 114: (0, 39, 19, 27, 8, 52, 25, 24, 11, 9, 40, 0)
s = 115: (0, 35, 14, 15, 13, 29, 11, 26, 23, 9, 42, 0)
s = 116: (0, 41, 14, 32, 9, 63, 18, 23, 21, 7, 48, 0)
s = 117: (0, 43, 12, 21, 9, 53, 31, 27, 14, 8, 30, 0)
s = 118: (0, 20, 11, 32, 7, 50, 16, 31, 12, 11, 25, 0)
s = 119: (0, 40, 11, 22, 9, 50, 24, 16, 15, 15, 62, 0)
s = 120: (0, 38, 9, 16, 6, 45, 17, 34, 12, 10, 48, 0)
s = 121: (0, 26, 16, 33, 7, 45, 16, 34, 19, 7, 37, 0)
s = 122: (0, 46, 12, 23, 7, 26, 18, 26, 19, 6, 47, 0)
s = 123: (0, 51, 10, 19, 6, 57, 14, 17, 19, 10, 49, 0)
s = 124: (0, 30, 19, 25, 10, 41, 13, 31, 18, 9, 59, 0)
s = 125: (0, 34, 13, 21, 7, 46, 13, 20, 13, 9, 29, 0)
s = 126: (0, 53, 11, 37, 6, 30, 11, 29, 10, 11, 37, 0)
s = 127: (0, 27, 13, 43, 6, 31, 10, 22, 18, 10, 33, 0)
s = 128: (0, 31, 14, 28, 6, 30, 14, 26, 13, 16, 35, 0)
s = 129: (0, 25, 15, 27, 12, 28, 14, 22, 16, 11, 28, 0)
s = 130: (0, 51, 9, 21, 8, 25, 19, 32, 14, 9, 29, 0)
s = 131: (0, 54, 14, 39, 7, 31, 25, 40, 15, 7, 76, 0)
s = 132: (0, 53, 16, 18, 10, 51, 16, 32, 14, 7, 41, 0)
s = 133: (0, 51, 14, 16, 9, 31, 12, 22, 10, 12, 36, 0)
s = 134: (0, 54, 13, 27, 15, 63, 15, 24, 11, 16, 25, 0)
s = 135: (0, 42, 16, 32, 5, 41, 12, 23, 19, 12, 61, 0)
s = 136: (0, 37, 15, 19, 11, 38, 10, 29, 17, 16, 23, 0)
s = 137: (0, 34, 16, 18, 8, 40, 17, 22, 13, 12, 35, 0)
s = 138: (0, 31, 8, 21, 6, 31, 16, 29, 18, 10, 37, 0)
s = 139: (0, 35, 13, 19, 7, 70, 26, 20, 9, 7, 29, 0)
s = 140: (0, 46, 12, 25, 7, 48, 14, 38, 11, 9, 60, 0)
s = 141: (0, 30, 9, 25, 8, 50, 24, 43, 14, 9, 45, 0)
s = 142: (0, 24, 12, 34, 7, 36, 12, 14, 17, 14, 53, 0)
s = 143: (0, 32, 8, 28, 8, 38, 13, 39, 20, 12, 34, 0)
s = 144: (0, 50, 13, 28, 6, 29, 16, 25, 17, 10, 33, 0)
s = 145: (0, 32, 13, 21, 10, 54, 15, 32, 17, 11, 54, 0)
s = 146: (0, 35, 9, 17, 6, 54, 14, 44, 16, 10, 60, 0)
s = 147: (0, 20, 10, 29, 5, 35, 19, 19, 13, 8, 43, 0)
s = 148: (0, 45, 8, 33, 6, 48, 27, 21, 19, 11, 37, 0)
s = 149: (0, 28, 11, 16, 10, 51, 25, 24, 15, 17, 31, 0)
s = 150: (0, 48, 10, 24, 9, 36, 22, 37, 14, 14, 52, 0)
s = 151: (0, 46, 14, 23, 7, 34, 14, 45, 15, 10, 52, 0)
s = 152: (0, 25, 10, 21, 15, 23, 18, 31, 18, 7, 50, 0)
s = 153: (0, 19, 17, 26, 7, 44, 13, 25, 11, 9, 42, 0)
s = 154: (0, 37, 18, 25, 9, 43, 18, 35, 14, 7, 26, 0)
s = 155: (0, 35, 10, 24, 5, 25, 11, 19, 9, 6, 25, 0)
s = 156: (0, 38, 21, 36, 10, 29, 23, 27, 12, 8, 58, 0)
s = 157: (0, 27, 12, 21, 8, 62, 25, 29, 8, 10, 53, 0)
s = 158: (0, 32, 13, 19, 9, 41, 16, 19, 10, 8, 29, 0)
s = 159: (0, 44, 18, 17, 7, 26, 18, 23, 10, 9, 35, 0)
s = 160: (0, 34, 9, 17, 11, 24, 16, 33, 17, 10, 32, 0)
s = 161: (0, 38, 11, 21, 6, 39, 21, 29, 15, 8, 41, 0)
s = 162: (0, 45, 14, 19, 13, 40, 11, 38, 15, 9, 27, 0)
s = 163: (0, 51, 20, 33, 10, 40, 16, 23, 19, 10, 27, 0)
s = 164: (0, 38, 10, 42, 10, 35, 10, 27, 10, 10, 58, 0)
s = 165: (0, 41, 9, 32, 6, 25, 10, 38, 10, 9, 41, 0)
s = 166: (0, 19, 9, 16, 6, 48, 16, 23, 15, 9, 33, 0)
s = 167: (0, 34, 10, 27, 7, 31, 14, 21, 12, 11, 56, 0)
s = 168: (0, 34, 15, 34, 8, 38, 23, 32, 15, 7, 51, 0)
s = 169: (0, 21, 10, 24, 7, 44, 14, 29, 10, 5, 31, 0)
s = 170: (0, 22, 19, 26, 10, 66, 13, 39, 13, 9, 59, 0)
s = 171: (0, 27, 10, 17, 11, 25, 12, 28, 22, 16, 44, 0)
s = 172: (0, 44, 10, 17, 7, 58, 17, 17, 11, 7, 39, 0)
s = 173: (0, 27, 15, 22, 11, 43, 26, 29, 19, 10, 32, 0)
s = 174: (0, 63, 17, 47, 14, 36, 23, 16, 13, 8, 26, 0)
s = 175: (0, 38, 16, 25, 12, 67, 20, 33, 13, 10, 35, 0)
s = 176: (0, 32, 7, 47, 8, 37, 15, 20, 15, 12, 46, 0)
s = 177: (0, 51, 17, 21, 7, 22, 20, 21, 11, 10, 28, 0)
s = 178: (0, 41, 15, 22, 9, 30, 19, 22, 17, 8, 32, 0)
s = 179: (0, 44, 19, 19, 6, 54, 24, 23, 14, 7, 34, 0)
s = 180: (0, 40, 12, 31, 7, 30, 20, 21, 14, 6, 50, 0)
s = 181: (0, 44, 7, 35, 7, 28, 13, 24, 20, 11, 68, 0)
s = 182: (0, 39, 15, 23, 14, 35, 14, 27, 20, 8, 32, 0)
s = 183: (0, 54, 12, 30, 9, 61, 14, 22, 18, 14, 38, 0)
s = 184: (0, 37, 17, 40, 8, 52, 15, 31, 13, 14, 25, 0)
s = 185: (0, 31, 12, 33, 10, 54, 16, 25, 12, 6, 70, 0)
s = 186: (0, 55, 11, 25, 8, 34, 15, 20, 9, 9, 27, 0)
s = 187: (0, 34, 11, 24, 7, 32, 17, 38, 13, 8, 49, 0)
s = 188: (0, 31, 13, 51, 11, 58, 17, 38, 19, 6, 71, 0)
s = 189: (0, 43, 12, 20, 8, 53, 17, 50, 15, 6, 43, 0)
s = 190: (0, 52, 19, 18, 6, 24, 12, 28, 13, 11, 59, 0)
s = 191: (0, 51, 11, 28, 5, 25, 14, 22, 21, 9, 59, 0)
s = 192: (0, 52, 15, 18, 6, 33, 13, 28, 15, 11, 46, 0)
s = 193: (0, 27, 7, 38, 7, 31, 12, 31, 16, 15, 23, 0)
s = 194: (0, 36, 16, 15, 7, 26, 19, 28, 23, 11, 49, 0)
s = 195: (0, 27, 16, 32, 5, 36, 19, 20, 11, 7, 28, 0)
s = 196: (0, 22, 16, 33, 7, 47, 12, 35, 19, 6, 58, 0)
s = 197: (0, 38, 13, 35, 12, 25, 20, 38, 15, 7, 40, 0)
s = 198: (0, 21, 10, 24, 10, 58, 24, 37, 20, 7, 56, 0)
s = 199: (0, 29, 16, 23, 11, 38, 28, 25, 20, 8, 48, 0)
s = 200: (0, 23, 12, 42, 11, 30, 14, 19, 14, 10, 42, 0)
------------------------------------------------------------------------
RESOURCE k = 2
s = 1: (0, 53, 32, 0, 16, 0, 0, 18, 0, 3, 0, 0)
s = 2: (0, 52, 27, 0, 26, 0, 0, 21, 0, 5, 0, 0)
s = 3: (0, 55, 52, 0, 14, 0, 0, 16, 0, 3, 0, 0)
s = 4: (0, 46, 33, 0, 12, 0, 0, 19, 0, 4, 0, 0)
s = 5: (0, 40, 29, 0, 14, 0, 0, 22, 0, 2, 0, 0)
s = 6: (0, 35, 31, 0, 17, 0, 0, 24, 0, 4, 0, 0)
s = 7: (0, 31, 28, 0, 15, 0, 0, 30, 0, 2, 0, 0)
s = 8: (0, 55, 28, 0, 12, 0, 0, 21, 0, 3, 0, 0)
s = 9: (0, 27, 37, 0, 23, 0, 0, 36, 0, 3, 0, 0)
s = 10: (0, 45, 44, 0, 24, 0, 0, 24, 0, 4, 0, 0)
s = 11: (0, 24, 24, 0, 16, 0, 0, 29, 0, 5, 0, 0)
s = 12: (0, 32, 41, 0, 24, 0, 0, 16, 0, 4, 0, 0)
s = 13: (0, 26, 24, 0, 22, 0, 0, 15, 0, 4, 0, 0)
s = 14: (0, 51, 21, 0, 15, 0, 0, 21, 0, 2, 0, 0)
s = 15: (0, 30, 27, 0, 19, 0, 0, 18, 0, 2, 0, 0)
s = 16: (0, 57, 26, 0, 23, 0, 0, 36, 0, 5, 0, 0)
s = 17: (0, 41, 53, 0, 15, 0, 0, 23, 0, 3, 0, 0)
s = 18: (0, 55, 31, 0, 27, 0, 0, 18, 0, 4, 0, 0)
s = 19: (0, 47, 43, 0, 16, 0, 0, 23, 0, 3, 0, 0)
s = 20: (0, 27, 25, 0, 16, 0, 0, 15, 0, 3, 0, 0)
s = 21: (0, 41, 30, 0, 20, 0, 0, 16, 0, 3, 0, 0)
s = 22: (0, 53, 39, 0, 16, 0, 0, 22, 0, 6, 0, 0)
s = 23: (0, 48, 36, 0, 17, 0, 0, 33, 0, 3, 0, 0)
s = 24: (0, 31, 46, 0, 22, 0, 0, 19, 0, 4, 0, 0)
s = 25: (0, 57, 29, 0, 33, 0, 0, 25, 0, 5, 0, 0)
s = 26: (0, 43, 37, 0, 14, 0, 0, 18, 0, 3, 0, 0)
s = 27: (0, 46, 44, 0, 19, 0, 0, 26, 0, 2, 0, 0)
s = 28: (0, 30, 27, 0, 16, 0, 0, 30, 0, 4, 0, 0)
s = 29: (0, 41, 20, 0, 30, 0, 0, 22, 0, 3, 0, 0)
s = 30: (0, 36, 30, 0, 28, 0, 0, 18, 0, 5, 0, 0)
s = 31: (0, 53, 42, 0, 23, 0, 0, 20, 0, 4, 0, 0)
s = 32: (0, 44, 35, 0, 26, 0, 0, 19, 0, 5, 0, 0)
s = 33: (0, 26, 35, 0, 27, 0, 0, 16, 0, 4, 0, 0)
s = 34: (0, 43, 34, 0, 19, 0, 0, 19, 0, 5, 0, 0)
s = 35: (0, 25, 24, 0, 19, 0, 0, 30, 0, 4, 0, 0)
s = 36: (0, 28, 40, 0, 23, 0, 0, 23, 0, 4, 0, 0)
s = 37: (0, 26, 31, 0, 23, 0, 0, 26, 0, 2, 0, 0)
s = 38: (0, 52, 33, 0, 23, 0, 0, 24, 0, 4, 0, 0)
s = 39: (0, 40, 32, 0, 14, 0, 0, 31, 0, 2, 0, 0)
s = 40: (0, 45, 27, 0, 21, 0, 0, 22, 0, 4, 0, 0)
s = 41: (0, 37, 37, 0, 24, 0, 0, 20, 0, 4, 0, 0)
s = 42: (0, 37, 29, 0, 17, 0, 0, 23, 0, 4, 0, 0)
s = 43: (0, 36, 35, 0, 17, 0, 0, 23, 0, 5, 0, 0)
s = 44: (0, 73, 33, 0, 23, 0, 0, 15, 0, 3, 0, 0)
s = 45: (0, 41, 27, 0, 28, 0, 0, 25, 0, 5, 0, 0)
s = 46: (0, 26, 34, 0, 20, 0, 0, 18, 0, 3, 0, 0)
s = 47: (0, 33, 61, 0, 15, 0, 0, 23, 0, 4, 0, 0)
s = 48: (0, 35, 58, 0, 28, 0, 0, 21, 0, 4, 0, 0)
s = 49: (0, 53, 38, 0, 22, 0, 0, 20, 0, 3, 0, 0)
s = 50: (0, 27, 45, 0, 27, 0, 0, 18, 0, 3, 0, 0)
s = 51: (0, 49, 23, 0, 17, 0, 0, 27, 0, 5, 0, 0)
s = 52: (0, 30, 57, 0, 16, 0, 0, 24, 0, 6, 0, 0)
s = 53: (0, 42, 52, 0, 17, 0, 0, 23, 0, 3, 0, 0)
s = 54: (0, 41, 42, 0, 33, 0, 0, 16, 0, 3, 0, 0)
s = 55: (0, 26, 53, 0, 19, 0, 0, 27, 0, 4, 0, 0)
s = 56: (0, 46, 40, 0, 15, 0, 0, 41, 0, 4, 0, 0)
s = 57: (0, 42, 44, 0, 17, 0, 0, 28, 0, 5, 0, 0)
s = 58: (0, 29, 27, 0, 23, 0, 0, 33, 0, 4, 0, 0)
s = 59: (0, 66, 32, 0, 14, 0, 0, 25, 0, 6, 0, 0)
s = 60: (0, 52, 50, 0, 20, 0, 0, 26, 0, 4, 0, 0)
s = 61: (0, 30, 43, 0, 14, 0, 0, 19, 0, 3, 0, 0)
s = 62: (0, 45, 45, 0, 17, 0, 0, 28, 0, 5, 0, 0)
s = 63: (0, 51, 60, 0, 21, 0, 0, 21, 0, 4, 0, 0)
s = 64: (0, 52, 52, 0, 21, 0, 0, 23, 0, 2, 0, 0)
s = 65: (0, 63, 47, 0, 21, 0, 0, 28, 0, 4, 0, 0)
s = 66: (0, 26, 27, 0, 23, 0, 0, 27, 0, 4, 0, 0)
s = 67: (0, 35, 30, 0, 25, 0, 0, 20, 0, 3, 0, 0)
s = 68: (0, 52, 25, 0, 25, 0, 0, 34, 0, 4, 0, 0)
s = 69: (0, 32, 32, 0, 13, 0, 0, 30, 0, 3, 0, 0)
s = 70: (0, 65, 53, 0, 28, 0, 0, 38, 0, 5, 0, 0)
s = 71: (0, 72, 39, 0, 19, 0, 0, 17, 0, 3, 0, 0)
s = 72: (0, 66, 29, 0, 21, 0, 0, 16, 0, 4, 0, 0)
s = 73: (0, 47, 52, 0, 35, 0, 0, 30, 0, 4, 0, 0)
s = 74: (0, 37, 26, 0, 14, 0, 0, 26, 0, 3, 0, 0)
s = 75: (0, 28, 28, 0, 21, 0, 0, 29, 0, 3, 0, 0)
s = 76: (0, 36, 35, 0, 31, 0, 0, 35, 0, 2, 0, 0)
s = 77: (0, 56, 45, 0, 15, 0, 0, 17, 0, 4, 0, 0)
s = 78: (0, 55, 23, 0, 20, 0, 0, 25, 0, 3, 0, 0)
s = 79: (0, 58, 45, 0, 19, 0, 0, 29, 0, 3, 0, 0)
s = 80: (0, 34, 32, 0, 24, 0, 0, 26, 0, 3, 0, 0)
s = 81: (0, 32, 30, 0, 20, 0, 0, 13, 0, 4, 0, 0)
s = 82: (0, 52, 37, 0, 12, 0, 0, 26, 0, 4, 0, 0)
s = 83: (0, 58, 48, 0, 25, 0, 0, 16, 0, 3, 0, 0)
s = 84: (0, 47, 49, 0, 19, 0, 0, 37, 0, 3, 0, 0)
s = 85: (0, 28, 47, 0, 17, 0, 0, 26, 0, 4, 0, 0)
s = 86: (0, 35, 45, 0, 18, 0, 0, 20, 0, 4, 0, 0)
s = 87: (0, 33, 48, 0, 21, 0, 0, 22, 0, 3, 0, 0)
s = 88: (0, 25, 43, 0, 18, 0, 0, 19, 0, 3, 0, 0)
s = 89: (0, 32, 34, 0, 22, 0, 0, 14, 0, 5, 0, 0)
s = 90: (0, 54, 27, 0, 25, 0, 0, 28, 0, 3, 0, 0)
s = 91: (0, 73, 35, 0, 24, 0, 0, 18, 0, 3, 0, 0)
s = 92: (0, 43, 39, 0, 18, 0, 0, 21, 0, 3, 0, 0)
s = 93: (0, 38, 45, 0, 29, 0, 0, 26, 0, 5, 0, 0)
s = 94: (0, 54, 36, 0, 28, 0, 0, 22, 0, 4, 0, 0)
s = 95: (0, 38, 33, 0, 20, 0, 0, 14, 0, 3, 0, 0)
s = 96: (0, 35, 33, 0, 26, 0, 0, 25, 0, 3, 0, 0)
s = 97: (0, 38, 30, 0, 28, 0, 0, 19, 0, 4, 0, 0)
s = 98: (0, 32, 34, 0, 15, 0, 0, 21, 0, 6, 0, 0)
s = 99: (0, 50, 51, 0, 16, 0, 0, 24, 0, 4, 0, 0)
s = 100: (0, 35, 39, 0, 11, 0, 0, 26, 0, 4, 0, 0)
s = 101: (0, 42, 27, 0, 13, 0, 0, 17, 0, 4, 0, 0)
s = 102: (0, 47, 23, 0, 13, 0, 0, 29, 0, 5, 0, 0)
s = 103: (0, 32, 40, 0, 15, 0, 0, 25, 0, 4, 0, 0)
s = 104: (0, 58, 25, 0, 20, 0, 0, 21, 0, 4, 0, 0)
s = 105: (0, 54, 26, 0, 15, 0, 0, 25, 0, 4, 0, 0)
s = 106: (0, 73, 26, 0, 31, 0, 0, 18, 0, 5, 0, 0)
s = 107: (0, 34, 53, 0, 15, 0, 0, 15, 0, 2, 0, 0)
s = 108: (0, 43, 20, 0, 22, 0, 0, 15, 0, 4, 0, 0)
s = 109: (0, 57, 35, 0, 18, 0, 0, 27, 0, 3, 0, 0)
s = 110: (0, 37, 50, 0, 13, 0, 0, 20, 0, 3, 0, 0)
s = 111: (0, 32, 42, 0, 15, 0, 0, 26, 0, 4, 0, 0)
s = 112: (0, 52, 48, 0, 19, 0, 0, 30, 0, 4, 0, 0)
s = 113: (0, 47, 19, 0, 16, 0, 0, 25, 0, 3, 0, 0)
s = 114: (0, 46, 57, 0, 20, 0, 0, 21, 0, 3, 0, 0)
s = 115: (0, 41, 40, 0, 32, 0, 0, 23, 0, 3, 0, 0)
s = 116: (0, 48, 41, 0, 21, 0, 0, 20, 0, 3, 0, 0)
s = 117: (0, 51, 34, 0, 22, 0, 0, 24, 0, 3, 0, 0)
s = 118: (0, 23, 33, 0, 16, 0, 0, 27, 0, 4, 0, 0)
s = 119: (0, 47, 32, 0, 22, 0, 0, 14, 0, 5, 0, 0)
s = 120: (0, 45, 27, 0, 15, 0, 0, 30, 0, 4, 0, 0)
s = 121: (0, 31, 48, 0, 16, 0, 0, 30, 0, 3, 0, 0)
s = 122: (0, 54, 36, 0, 16, 0, 0, 23, 0, 2, 0, 0)
s = 123: (0, 59, 29, 0, 14, 0, 0, 15, 0, 4, 0, 0)
s = 124: (0, 35, 55, 0, 24, 0, 0, 28, 0, 3, 0, 0)
s = 125: (0, 39, 39, 0, 17, 0, 0, 18, 0, 3, 0, 0)
s = 126: (0, 62, 31, 0, 15, 0, 0, 26, 0, 4, 0, 0)
s = 127: (0, 31, 37, 0, 13, 0, 0, 20, 0, 4, 0, 0)
s = 128: (0, 36, 42, 0, 14, 0, 0, 23, 0, 6, 0, 0)
s = 129: (0, 29, 44, 0, 29, 0, 0, 19, 0, 4, 0, 0)
s = 130: (0, 60, 26, 0, 19, 0, 0, 28, 0, 3, 0, 0)
s = 131: (0, 63, 40, 0, 18, 0, 0, 36, 0, 3, 0, 0)
s = 132: (0, 61, 46, 0, 24, 0, 0, 28, 0, 3, 0, 0)
s = 133: (0, 59, 40, 0, 21, 0, 0, 19, 0, 4, 0, 0)
s = 134: (0, 63, 38, 0, 36, 0, 0, 22, 0, 6, 0, 0)
s = 135: (0, 49, 47, 0, 12, 0, 0, 20, 0, 4, 0, 0)
s = 136: (0, 44, 44, 0, 27, 0, 0, 25, 0, 6, 0, 0)
s = 137: (0, 39, 46, 0, 18, 0, 0, 20, 0, 4, 0, 0)
s = 138: (0, 36, 24, 0, 14, 0, 0, 26, 0, 4, 0, 0)
s = 139: (0, 41, 38, 0, 17, 0, 0, 18, 0, 3, 0, 0)
s = 140: (0, 54, 34, 0, 17, 0, 0, 34, 0, 3, 0, 0)
s = 141: (0, 35, 25, 0, 19, 0, 0, 38, 0, 3, 0, 0)
s = 142: (0, 28, 34, 0, 17, 0, 0, 13, 0, 5, 0, 0)
s = 143: (0, 38, 22, 0, 19, 0, 0, 35, 0, 4, 0, 0)
s = 144: (0, 58, 37, 0, 15, 0, 0, 22, 0, 4, 0, 0)
s = 145: (0, 37, 37, 0, 24, 0, 0, 28, 0, 4, 0, 0)
s = 146: (0, 41, 25, 0, 14, 0, 0, 39, 0, 4, 0, 0)
s = 147: (0, 23, 29, 0, 12, 0, 0, 17, 0, 3, 0, 0)
s = 148: (0, 53, 24, 0, 14, 0, 0, 19, 0, 4, 0, 0)
s = 149: (0, 33, 31, 0, 24, 0, 0, 22, 0, 6, 0, 0)
s = 150: (0, 56, 30, 0, 23, 0, 0, 33, 0, 5, 0, 0)
s = 151: (0, 53, 42, 0, 16, 0, 0, 40, 0, 4, 0, 0)
s = 152: (0, 29, 28, 0, 36, 0, 0, 28, 0, 3, 0, 0)
s = 153: (0, 23, 50, 0, 18, 0, 0, 23, 0, 3, 0, 0)
s = 154: (0, 43, 54, 0, 21, 0, 0, 31, 0, 3, 0, 0)
s = 155: (0, 41, 30, 0, 11, 0, 0, 17, 0, 2, 0, 0)
s = 156: (0, 44, 61, 0, 25, 0, 0, 24, 0, 3, 0, 0)
s = 157: (0, 31, 35, 0, 19, 0, 0, 26, 0, 4, 0, 0)
s = 158: (0, 37, 37, 0, 22, 0, 0, 17, 0, 3, 0, 0)
s = 159: (0, 51, 53, 0, 17, 0, 0, 21, 0, 3, 0, 0)
s = 160: (0, 39, 26, 0, 27, 0, 0, 29, 0, 4, 0, 0)
s = 161: (0, 44, 33, 0, 14, 0, 0, 26, 0, 3, 0, 0)
s = 162: (0, 53, 40, 0, 33, 0, 0, 34, 0, 3, 0, 0)
s = 163: (0, 60, 59, 0, 24, 0, 0, 20, 0, 4, 0, 0)
s = 164: (0, 44, 28, 0, 25, 0, 0, 24, 0, 4, 0, 0)
s = 165: (0, 48, 27, 0, 14, 0, 0, 34, 0, 3, 0, 0)
s = 166: (0, 23, 25, 0, 14, 0, 0, 20, 0, 3, 0, 0)
s = 167: (0, 39, 28, 0, 18, 0, 0, 18, 0, 4, 0, 0)
s = 168: (0, 40, 44, 0, 19, 0, 0, 28, 0, 3, 0, 0)
s = 169: (0, 24, 28, 0, 18, 0, 0, 26, 0, 2, 0, 0)
s = 170: (0, 25, 55, 0, 25, 0, 0, 35, 0, 3, 0, 0)
s = 171: (0, 31, 30, 0, 26, 0, 0, 25, 0, 6, 0, 0)
s = 172: (0, 51, 28, 0, 18, 0, 0, 15, 0, 3, 0, 0)
s = 173: (0, 32, 43, 0, 27, 0, 0, 25, 0, 4, 0, 0)
s = 174: (0, 73, 51, 0, 34, 0, 0, 15, 0, 3, 0, 0)
s = 175: (0, 44, 47, 0, 29, 0, 0, 29, 0, 4, 0, 0)
s = 176: (0, 37, 21, 0, 19, 0, 0, 17, 0, 4, 0, 0)
s = 177: (0, 59, 50, 0, 18, 0, 0, 19, 0, 4, 0, 0)
s = 178: (0, 48, 45, 0, 21, 0, 0, 19, 0, 3, 0, 0)
s = 179: (0, 52, 55, 0, 15, 0, 0, 20, 0, 3, 0, 0)
s = 180: (0, 47, 34, 0, 18, 0, 0, 19, 0, 2, 0, 0)
s = 181: (0, 51, 20, 0, 17, 0, 0, 21, 0, 4, 0, 0)
s = 182: (0, 45, 43, 0, 34, 0, 0, 24, 0, 3, 0, 0)
s = 183: (0, 63, 34, 0, 22, 0, 0, 20, 0, 5, 0, 0)
s = 184: (0, 43, 51, 0, 19, 0, 0, 28, 0, 5, 0, 0)
s = 185: (0, 36, 35, 0, 25, 0, 0, 22, 0, 2, 0, 0)
s = 186: (0, 64, 31, 0, 19, 0, 0, 18, 0, 3, 0, 0)
s = 187: (0, 39, 32, 0, 16, 0, 0, 34, 0, 3, 0, 0)
s = 188: (0, 36, 37, 0, 26, 0, 0, 34, 0, 2, 0, 0)
s = 189: (0, 51, 36, 0, 20, 0, 0, 44, 0, 2, 0, 0)
s = 190: (0, 61, 57, 0, 15, 0, 0, 25, 0, 4, 0, 0)
s = 191: (0, 60, 33, 0, 13, 0, 0, 20, 0, 3, 0, 0)
s = 192: (0, 60, 45, 0, 13, 0, 0, 25, 0, 4, 0, 0)
s = 193: (0, 32, 21, 0, 17, 0, 0, 27, 0, 5, 0, 0)
s = 194: (0, 41, 47, 0, 16, 0, 0, 25, 0, 4, 0, 0)
s = 195: (0, 32, 48, 0, 13, 0, 0, 18, 0, 3, 0, 0)
s = 196: (0, 25, 48, 0, 18, 0, 0, 31, 0, 2, 0, 0)
s = 197: (0, 44, 38, 0, 28, 0, 0, 34, 0, 3, 0, 0)
s = 198: (0, 25, 28, 0, 24, 0, 0, 33, 0, 3, 0, 0)
s = 199: (0, 33, 47, 0, 26, 0, 0, 22, 0, 3, 0, 0)
s = 200: (0, 26, 34, 0, 27, 0, 0, 17, 0, 4, 0, 0)
------------------------------------------------------------------------
RESOURCE k = 3
s = 1: (0, 0, 0, 24, 0, 26, 26, 0, 26, 0, 13, 0)
s = 2: (0, 0, 0, 17, 0, 32, 19, 0, 18, 0, 11, 0)
s = 3: (0, 0, 0, 18, 0, 38, 33, 0, 23, 0, 11, 0)
s = 4: (0, 0, 0, 26, 0, 27, 24, 0, 13, 0, 12, 0)
s = 5: (0, 0, 0, 43, 0, 46, 44, 0, 15, 0, 11, 0)
s = 6: (0, 0, 0, 35, 0, 37, 21, 0, 20, 0, 15, 0)
s = 7: (0, 0, 0, 33, 0, 21, 32, 0, 20, 0, 16, 0)
s = 8: (0, 0, 0, 28, 0, 26, 31, 0, 21, 0, 10, 0)
s = 9: (0, 0, 0, 25, 0, 46, 21, 0, 18, 0, 20, 0)
s = 10: (0, 0, 0, 16, 0, 32, 39, 0, 17, 0, 22, 0)
s = 11: (0, 0, 0, 34, 0, 25, 24, 0, 23, 0, 15, 0)
s = 12: (0, 0, 0, 19, 0, 30, 45, 0, 14, 0, 17, 0)
s = 13: (0, 0, 0, 18, 0, 24, 22, 0, 10, 0, 14, 0)
s = 14: (0, 0, 0, 24, 0, 20, 24, 0, 13, 0, 15, 0)
s = 15: (0, 0, 0, 25, 0, 23, 47, 0, 22, 0, 10, 0)
s = 16: (0, 0, 0, 32, 0, 29, 24, 0, 14, 0, 13, 0)
s = 17: (0, 0, 0, 34, 0, 31, 15, 0, 14, 0, 12, 0)
s = 18: (0, 0, 0, 30, 0, 32, 32, 0, 21, 0, 12, 0)
s = 19: (0, 0, 0, 25, 0, 20, 22, 0, 26, 0, 16, 0)
s = 20: (0, 0, 0, 36, 0, 48, 20, 0, 26, 0, 13, 0)
s = 21: (0, 0, 0, 30, 0, 45, 22, 0, 21, 0, 7, 0)
s = 22: (0, 0, 0, 21, 0, 27, 24, 0, 22, 0, 14, 0)
s = 23: (0, 0, 0, 26, 0, 27, 41, 0, 17, 0, 15, 0)
s = 24: (0, 0, 0, 29, 0, 27, 39, 0, 17, 0, 12, 0)
s = 25: (0, 0, 0, 49, 0, 42, 15, 0, 26, 0, 15, 0)
s = 26: (0, 0, 0, 22, 0, 34, 37, 0, 18, 0, 12, 0)
s = 27: (0, 0, 0, 25, 0, 45, 18, 0, 14, 0, 17, 0)
s = 28: (0, 0, 0, 58, 0, 31, 30, 0, 19, 0, 11, 0)
s = 29: (0, 0, 0, 34, 0, 27, 18, 0, 16, 0, 11, 0)
s = 30: (0, 0, 0, 33, 0, 35, 31, 0, 14, 0, 13, 0)
s = 31: (0, 0, 0, 20, 0, 30, 34, 0, 23, 0, 15, 0)
s = 32: (0, 0, 0, 43, 0, 38, 38, 0, 20, 0, 10, 0)
s = 33: (0, 0, 0, 31, 0, 25, 26, 0, 17, 0, 10, 0)
s = 34: (0, 0, 0, 36, 0, 26, 24, 0, 17, 0, 10, 0)
s = 35: (0, 0, 0, 38, 0, 39, 34, 0, 29, 0, 13, 0)
s = 36: (0, 0, 0, 32, 0, 29, 21, 0, 14, 0, 11, 0)
s = 37: (0, 0, 0, 47, 0, 30, 19, 0, 15, 0, 11, 0)
s = 38: (0, 0, 0, 26, 0, 36, 33, 0, 24, 0, 15, 0)
s = 39: (0, 0, 0, 35, 0, 22, 27, 0, 20, 0, 17, 0)
s = 40: (0, 0, 0, 25, 0, 28, 24, 0, 15, 0, 12, 0)
s = 41: (0, 0, 0, 24, 0, 47, 16, 0, 16, 0, 14, 0)
s = 42: (0, 0, 0, 32, 0, 26, 34, 0, 15, 0, 11, 0)
s = 43: (0, 0, 0, 35, 0, 25, 32, 0, 17, 0, 13, 0)
s = 44: (0, 0, 0, 23, 0, 36, 22, 0, 21, 0, 10, 0)
s = 45: (0, 0, 0, 35, 0, 30, 18, 0, 21, 0, 11, 0)
s = 46: (0, 0, 0, 20, 0, 30, 23, 0, 23, 0, 12, 0)
s = 47: (0, 0, 0, 30, 0, 24, 19, 0, 18, 0, 8, 0)
s = 48: (0, 0, 0, 35, 0, 18, 38, 0, 18, 0, 7, 0)
s = 49: (0, 0, 0, 21, 0, 22, 27, 0, 23, 0, 13, 0)
s = 50: (0, 0, 0, 39, 0, 34, 17, 0, 19, 0, 7, 0)
s = 51: (0, 0, 0, 35, 0, 29, 23, 0, 17, 0, 14, 0)
s = 52: (0, 0, 0, 19, 0, 27, 22, 0, 12, 0, 9, 0)
s = 53: (0, 0, 0, 17, 0, 19, 28, 0, 16, 0, 12, 0)
s = 54: (0, 0, 0, 28, 0, 25, 19, 0, 15, 0, 12, 0)
s = 55: (0, 0, 0, 42, 0, 42, 31, 0, 21, 0, 13, 0)
s = 56: (0, 0, 0, 17, 0, 19, 30, 0, 28, 0, 9, 0)
s = 57: (0, 0, 0, 37, 0, 40, 22, 0, 23, 0, 12, 0)
s = 58: (0, 0, 0, 34, 0, 34, 30, 0, 17, 0, 10, 0)
s = 59: (0, 0, 0, 30, 0, 20, 27, 0, 18, 0, 10, 0)
s = 60: (0, 0, 0, 35, 0, 18, 33, 0, 17, 0, 15, 0)
s = 61: (0, 0, 0, 27, 0, 28, 43, 0, 16, 0, 19, 0)
s = 62: (0, 0, 0, 28, 0, 35, 42, 0, 14, 0, 9, 0)
s = 63: (0, 0, 0, 27, 0, 51, 22, 0, 22, 0, 15, 0)
s = 64: (0, 0, 0, 47, 0, 29, 31, 0, 13, 0, 8, 0)
s = 65: (0, 0, 0, 29, 0, 23, 26, 0, 19, 0, 11, 0)
s = 66: (0, 0, 0, 55, 0, 42, 21, 0, 18, 0, 14, 0)
s = 67: (0, 0, 0, 27, 0, 21, 36, 0, 11, 0, 16, 0)
s = 68: (0, 0, 0, 23, 0, 31, 21, 0, 28, 0, 12, 0)
s = 69: (0, 0, 0, 37, 0, 23, 35, 0, 24, 0, 12, 0)
s = 70: (0, 0, 0, 38, 0, 51, 30, 0, 29, 0, 12, 0)
s = 71: (0, 0, 0, 28, 0, 47, 33, 0, 17, 0, 9, 0)
s = 72: (0, 0, 0, 27, 0, 37, 28, 0, 17, 0, 10, 0)
s = 73: (0, 0, 0, 50, 0, 30, 19, 0, 13, 0, 13, 0)
s = 74: (0, 0, 0, 22, 0, 28, 20, 0, 29, 0, 10, 0)
s = 75: (0, 0, 0, 40, 0, 16, 20, 0, 15, 0, 17, 0)
s = 76: (0, 0, 0, 33, 0, 21, 20, 0, 16, 0, 10, 0)
s = 77: (0, 0, 0, 33, 0, 36, 28, 0, 21, 0, 8, 0)
s = 78: (0, 0, 0, 19, 0, 26, 30, 0, 20, 0, 9, 0)
s = 79: (0, 0, 0, 25, 0, 30, 34, 0, 13, 0, 14, 0)
s = 80: (0, 0, 0, 28, 0, 19, 20, 0, 15, 0, 9, 0)
s = 81: (0, 0, 0, 46, 0, 33, 39, 0, 15, 0, 9, 0)
s = 82: (0, 0, 0, 24, 0, 34, 26, 0, 27, 0, 15, 0)
s = 83: (0, 0, 0, 27, 0, 43, 26, 0, 25, 0, 10, 0)
s = 84: (0, 0, 0, 34, 0, 41, 35, 0, 16, 0, 8, 0)
s = 85: (0, 0, 0, 38, 0, 41, 24, 0, 25, 0, 13, 0)
s = 86: (0, 0, 0, 31, 0, 24, 24, 0, 18, 0, 13, 0)
s = 87: (0, 0, 0, 22, 0, 30, 42, 0, 14, 0, 9, 0)
s = 88: (0, 0, 0, 21, 0, 31, 18, 0, 22, 0, 7, 0)
s = 89: (0, 0, 0, 27, 0, 35, 21, 0, 22, 0, 11, 0)
s = 90: (0, 0, 0, 29, 0, 28, 42, 0, 18, 0, 19, 0)
s = 91: (0, 0, 0, 27, 0, 41, 43, 0, 11, 0, 16, 0)
s = 92: (0, 0, 0, 25, 0, 19, 20, 0, 13, 0, 10, 0)
s = 93: (0, 0, 0, 40, 0, 39, 19, 0, 15, 0, 14, 0)
s = 94: (0, 0, 0, 16, 0, 27, 20, 0, 22, 0, 12, 0)
s = 95: (0, 0, 0, 25, 0, 31, 33, 0, 18, 0, 11, 0)
s = 96: (0, 0, 0, 43, 0, 20, 23, 0, 27, 0, 14, 0)
s = 97: (0, 0, 0, 33, 0, 28, 33, 0, 17, 0, 9, 0)
s = 98: (0, 0, 0, 20, 0, 20, 23, 0, 13, 0, 10, 0)
s = 99: (0, 0, 0, 33, 0, 24, 18, 0, 19, 0, 13, 0)
s = 100: (0, 0, 0, 22, 0, 24, 26, 0, 24, 0, 14, 0)
s = 101: (0, 0, 0, 34, 0, 48, 47, 0, 19, 0, 9, 0)
s = 102: (0, 0, 0, 27, 0, 49, 20, 0, 16, 0, 8, 0)
s = 103: (0, 0, 0, 31, 0, 27, 26, 0, 19, 0, 8, 0)
s = 104: (0, 0, 0, 34, 0, 30, 20, 0, 32, 0, 12, 0)
s = 105: (0, 0, 0, 22, 0, 19, 29, 0, 16, 0, 10, 0)
s = 106: (0, 0, 0, 35, 0, 26, 29, 0, 20, 0, 7, 0)
s = 107: (0, 0, 0, 34, 0, 26, 34, 0, 14, 0, 11, 0)
s = 108: (0, 0, 0, 27, 0, 21, 32, 0, 12, 0, 18, 0)
s = 109: (0, 0, 0, 22, 0, 16, 24, 0, 13, 0, 12, 0)
s = 110: (0, 0, 0, 28, 0, 25, 28, 0, 22, 0, 11, 0)
s = 111: (0, 0, 0, 27, 0, 36, 31, 0, 18, 0, 15, 0)
s = 112: (0, 0, 0, 18, 0, 37, 22, 0, 17, 0, 20, 0)
s = 113: (0, 0, 0, 35, 0, 44, 27, 0, 16, 0, 17, 0)
s = 114: (0, 0, 0, 30, 0, 39, 43, 0, 14, 0, 12, 0)
s = 115: (0, 0, 0, 17, 0, 22, 19, 0, 30, 0, 12, 0)
s = 116: (0, 0, 0, 35, 0, 47, 30, 0, 27, 0, 14, 0)
s = 117: (0, 0, 0, 24, 0, 40, 54, 0, 17, 0, 9, 0)
s = 118: (0, 0, 0, 36, 0, 38, 28, 0, 15, 0, 8, 0)
s = 119: (0, 0, 0, 24, 0, 38, 41, 0, 19, 0, 18, 0)
s = 120: (0, 0, 0, 18, 0, 34, 29, 0, 16, 0, 14, 0)
s = 121: (0, 0, 0, 37, 0, 34, 28, 0, 25, 0, 11, 0)
s = 122: (0, 0, 0, 26, 0, 20, 31, 0, 24, 0, 14, 0)
s = 123: (0, 0, 0, 22, 0, 43, 23, 0, 24, 0, 14, 0)
s = 124: (0, 0, 0, 28, 0, 31, 23, 0, 23, 0, 17, 0)
s = 125: (0, 0, 0, 23, 0, 34, 22, 0, 16, 0, 9, 0)
s = 126: (0, 0, 0, 41, 0, 23, 19, 0, 13, 0, 11, 0)
s = 127: (0, 0, 0, 48, 0, 23, 18, 0, 23, 0, 10, 0)
s = 128: (0, 0, 0, 31, 0, 22, 23, 0, 17, 0, 10, 0)
s = 129: (0, 0, 0, 30, 0, 21, 24, 0, 21, 0, 8, 0)
s = 130: (0, 0, 0, 23, 0, 19, 32, 0, 17, 0, 9, 0)
s = 131: (0, 0, 0, 44, 0, 23, 44, 0, 19, 0, 22, 0)
s = 132: (0, 0, 0, 20, 0, 38, 28, 0, 18, 0, 12, 0)
s = 133: (0, 0, 0, 18, 0, 24, 20, 0, 13, 0, 11, 0)
s = 134: (0, 0, 0, 30, 0, 47, 26, 0, 14, 0, 7, 0)
s = 135: (0, 0, 0, 35, 0, 31, 21, 0, 25, 0, 18, 0)
s = 136: (0, 0, 0, 21, 0, 29, 17, 0, 21, 0, 7, 0)
s = 137: (0, 0, 0, 20, 0, 30, 30, 0, 17, 0, 10, 0)
s = 138: (0, 0, 0, 23, 0, 23, 28, 0, 22, 0, 11, 0)
s = 139: (0, 0, 0, 21, 0, 53, 44, 0, 11, 0, 9, 0)
s = 140: (0, 0, 0, 27, 0, 36, 24, 0, 13, 0, 17, 0)
s = 141: (0, 0, 0, 28, 0, 37, 42, 0, 18, 0, 13, 0)
s = 142: (0, 0, 0, 37, 0, 27, 21, 0, 22, 0, 15, 0)
s = 143: (0, 0, 0, 31, 0, 29, 23, 0, 26, 0, 10, 0)
s = 144: (0, 0, 0, 31, 0, 22, 28, 0, 21, 0, 10, 0)
s = 145: (0, 0, 0, 24, 0, 40, 26, 0, 22, 0, 16, 0)
s = 146: (0, 0, 0, 19, 0, 41, 24, 0, 20, 0, 18, 0)
s = 147: (0, 0, 0, 32, 0, 26, 33, 0, 17, 0, 13, 0)
s = 148: (0, 0, 0, 37, 0, 36, 48, 0, 24, 0, 11, 0)
s = 149: (0, 0, 0, 18, 0, 38, 44, 0, 19, 0, 9, 0)
s = 150: (0, 0, 0, 26, 0, 27, 39, 0, 18, 0, 15, 0)
s = 151: (0, 0, 0, 26, 0, 26, 25, 0, 20, 0, 15, 0)
s = 152: (0, 0, 0, 23, 0, 17, 31, 0, 23, 0, 15, 0)
s = 153: (0, 0, 0, 29, 0, 33, 23, 0, 15, 0, 12, 0)
s = 154: (0, 0, 0, 28, 0, 32, 31, 0, 18, 0, 8, 0)
s = 155: (0, 0, 0, 26, 0, 19, 18, 0, 11, 0, 7, 0)
s = 156: (0, 0, 0, 40, 0, 22, 40, 0, 15, 0, 17, 0)
s = 157: (0, 0, 0, 24, 0, 47, 43, 0, 10, 0, 15, 0)
s = 158: (0, 0, 0, 22, 0, 31, 28, 0, 13, 0, 9, 0)
s = 159: (0, 0, 0, 19, 0, 19, 32, 0, 13, 0, 10, 0)
s = 160: (0, 0, 0, 19, 0, 18, 28, 0, 22, 0, 9, 0)
s = 161: (0, 0, 0, 23, 0, 29, 36, 0, 19, 0, 12, 0)
s = 162: (0, 0, 0, 21, 0, 30, 19, 0, 19, 0, 8, 0)
s = 163: (0, 0, 0, 37, 0, 30, 27, 0, 25, 0, 8, 0)
s = 164: (0, 0, 0, 47, 0, 27, 17, 0, 13, 0, 17, 0)
s = 165: (0, 0, 0, 35, 0, 19, 18, 0, 12, 0, 12, 0)
s = 166: (0, 0, 0, 18, 0, 36, 28, 0, 20, 0, 10, 0)
s = 167: (0, 0, 0, 30, 0, 23, 24, 0, 15, 0, 16, 0)
s = 168: (0, 0, 0, 38, 0, 29, 40, 0, 19, 0, 15, 0)
s = 169: (0, 0, 0, 26, 0, 33, 25, 0, 13, 0, 9, 0)
s = 170: (0, 0, 0, 29, 0, 50, 23, 0, 17, 0, 17, 0)
s = 171: (0, 0, 0, 19, 0, 19, 21, 0, 28, 0, 13, 0)
s = 172: (0, 0, 0, 19, 0, 44, 29, 0, 14, 0, 12, 0)
s = 173: (0, 0, 0, 25, 0, 32, 44, 0, 24, 0, 9, 0)
s = 174: (0, 0, 0, 52, 0, 27, 40, 0, 16, 0, 8, 0)
s = 175: (0, 0, 0, 27, 0, 51, 35, 0, 17, 0, 10, 0)
s = 176: (0, 0, 0, 52, 0, 28, 26, 0, 19, 0, 14, 0)
s = 177: (0, 0, 0, 23, 0, 17, 35, 0, 15, 0, 8, 0)
s = 178: (0, 0, 0, 24, 0, 23, 32, 0, 22, 0, 9, 0)
s = 179: (0, 0, 0, 21, 0, 41, 41, 0, 18, 0, 10, 0)
s = 180: (0, 0, 0, 34, 0, 23, 34, 0, 18, 0, 15, 0)
s = 181: (0, 0, 0, 38, 0, 21, 22, 0, 26, 0, 20, 0)
s = 182: (0, 0, 0, 25, 0, 26, 24, 0, 26, 0, 9, 0)
s = 183: (0, 0, 0, 33, 0, 46, 24, 0, 23, 0, 11, 0)
s = 184: (0, 0, 0, 45, 0, 39, 25, 0, 16, 0, 8, 0)
s = 185: (0, 0, 0, 36, 0, 41, 28, 0, 15, 0, 20, 0)
s = 186: (0, 0, 0, 28, 0, 26, 25, 0, 12, 0, 8, 0)
s = 187: (0, 0, 0, 27, 0, 24, 29, 0, 16, 0, 14, 0)
s = 188: (0, 0, 0, 57, 0, 44, 29, 0, 24, 0, 21, 0)
s = 189: (0, 0, 0, 22, 0, 40, 30, 0, 19, 0, 13, 0)
s = 190: (0, 0, 0, 20, 0, 18, 21, 0, 17, 0, 17, 0)
s = 191: (0, 0, 0, 31, 0, 19, 24, 0, 27, 0, 17, 0)
s = 192: (0, 0, 0, 20, 0, 25, 23, 0, 19, 0, 14, 0)
s = 193: (0, 0, 0, 43, 0, 24, 21, 0, 20, 0, 7, 0)
s = 194: (0, 0, 0, 16, 0, 19, 32, 0, 30, 0, 14, 0)
s = 195: (0, 0, 0, 36, 0, 27, 32, 0, 14, 0, 8, 0)
s = 196: (0, 0, 0, 37, 0, 35, 21, 0, 25, 0, 17, 0)
s = 197: (0, 0, 0, 39, 0, 19, 34, 0, 19, 0, 12, 0)
s = 198: (0, 0, 0, 27, 0, 43, 42, 0, 25, 0, 16, 0)
s = 199: (0, 0, 0, 26, 0, 29, 49, 0, 26, 0, 14, 0)
s = 200: (0, 0, 0, 46, 0, 23, 24, 0, 18, 0, 12, 0)
************************************************************************
ES/LS-VALUES:
jobnr.   ES(i)    LS(i)
------------------------------------------------------------------------
  0        0        0
  1        0       50
  2        0       65
  3        0       73
  4       10       61
  5       13       70
  6       13       65
  7       20       73
  8       25       79
  9       21       81
 10       10       72
 11       28       83
************************************************************************
BIG-M-VALUES:
M1 = 57, M2 = 188
************************************************************************
